p edge 100 495
e 1 21
e 1 22
e 1 55
e 1 56
e 1 59
e 1 68
e 1 78
e 1 82
e 1 94
e 2 13
e 2 27
e 2 37
e 2 43
e 2 56
e 2 81
e 2 84
e 2 90
e 2 97
e 3 9
e 3 18
e 3 27
e 3 30
e 3 46
e 3 61
e 3 63
e 3 84
e 3 85
e 3 93
e 4 11
e 4 16
e 4 22
e 4 34
e 4 44
e 4 61
e 4 77
e 4 100
e 5 11
e 5 34
e 5 40
e 5 41
e 5 57
e 5 72
e 6 9
e 6 17
e 6 30
e 6 41
e 6 50
e 6 56
e 6 62
e 6 71
e 6 81
e 7 8
e 7 13
e 7 29
e 7 56
e 7 63
e 7 65
e 7 68
e 8 13
e 8 34
e 8 42
e 8 59
e 8 77
e 8 95
e 9 21
e 9 31
e 9 47
e 9 56
e 9 57
e 9 59
e 9 63
e 9 65
e 9 70
e 9 71
e 9 74
e 10 14
e 10 23
e 10 33
e 10 34
e 10 37
e 10 47
e 10 63
e 10 64
e 10 69
e 10 83
e 10 91
e 10 95
e 11 16
e 11 18
e 11 20
e 11 23
e 11 38
e 11 57
e 11 58
e 11 91
e 11 93
e 11 96
e 12 29
e 12 34
e 12 38
e 12 49
e 12 64
e 12 72
e 12 73
e 12 94
e 12 98
e 13 14
e 13 16
e 13 22
e 13 34
e 13 60
e 13 73
e 13 79
e 13 94
e 13 95
e 13 100
e 14 20
e 14 33
e 14 41
e 14 61
e 14 62
e 14 64
e 14 70
e 14 83
e 14 90
e 14 94
e 15 30
e 15 50
e 15 65
e 16 17
e 16 19
e 16 48
e 16 49
e 16 50
e 16 53
e 16 62
e 16 63
e 16 82
e 16 83
e 16 98
e 17 19
e 17 32
e 17 44
e 17 73
e 17 74
e 17 77
e 17 85
e 17 87
e 17 89
e 17 94
e 18 19
e 18 24
e 18 25
e 18 49
e 18 55
e 18 60
e 18 63
e 18 72
e 18 75
e 18 80
e 18 83
e 18 87
e 19 21
e 19 27
e 19 35
e 19 39
e 19 41
e 19 89
e 20 21
e 20 49
e 20 51
e 20 54
e 20 55
e 20 61
e 20 83
e 20 89
e 20 97
e 20 98
e 21 24
e 21 27
e 21 29
e 21 35
e 21 38
e 21 40
e 21 45
e 21 56
e 21 62
e 21 63
e 21 70
e 21 79
e 21 82
e 21 83
e 21 84
e 21 95
e 21 100
e 22 32
e 22 45
e 22 51
e 22 63
e 22 68
e 22 90
e 23 27
e 23 35
e 23 36
e 23 40
e 23 42
e 23 45
e 23 100
e 24 27
e 24 39
e 24 52
e 24 65
e 24 66
e 24 72
e 24 93
e 24 100
e 25 28
e 25 40
e 25 46
e 25 49
e 25 51
e 25 56
e 25 62
e 25 74
e 25 90
e 26 51
e 26 52
e 26 56
e 26 58
e 26 67
e 26 75
e 26 92
e 26 97
e 27 40
e 27 50
e 27 51
e 27 52
e 27 56
e 27 76
e 27 78
e 28 39
e 28 53
e 28 58
e 28 62
e 28 68
e 28 75
e 28 81
e 28 98
e 29 40
e 29 47
e 29 54
e 29 58
e 29 61
e 29 70
e 29 90
e 29 97
e 30 40
e 30 41
e 30 56
e 30 61
e 30 65
e 30 79
e 30 84
e 31 37
e 31 40
e 31 44
e 31 47
e 31 49
e 31 55
e 31 74
e 31 85
e 31 96
e 31 98
e 32 34
e 32 59
e 32 78
e 32 86
e 32 88
e 32 89
e 32 99
e 33 45
e 33 46
e 33 53
e 33 63
e 33 65
e 33 66
e 33 68
e 34 36
e 34 39
e 34 40
e 34 78
e 34 86
e 35 54
e 35 56
e 35 65
e 35 69
e 35 81
e 35 88
e 36 39
e 36 52
e 36 83
e 36 91
e 36 98
e 37 43
e 37 51
e 37 84
e 38 41
e 38 51
e 38 60
e 38 61
e 38 79
e 39 51
e 39 52
e 39 71
e 39 95
e 39 96
e 40 54
e 40 56
e 40 62
e 40 75
e 40 79
e 40 83
e 41 58
e 41 69
e 41 83
e 41 86
e 42 52
e 42 54
e 42 56
e 42 70
e 42 79
e 42 87
e 43 48
e 43 54
e 43 64
e 43 71
e 43 73
e 43 78
e 43 80
e 43 86
e 43 96
e 44 57
e 44 68
e 44 74
e 44 75
e 44 99
e 45 46
e 45 48
e 45 50
e 45 71
e 45 85
e 45 99
e 46 59
e 46 66
e 46 74
e 46 80
e 46 88
e 46 93
e 47 52
e 47 53
e 48 51
e 48 58
e 48 90
e 48 92
e 48 98
e 49 68
e 49 71
e 49 82
e 49 97
e 50 51
e 50 52
e 50 60
e 50 65
e 50 69
e 50 70
e 50 72
e 50 75
e 50 96
e 50 99
e 51 54
e 51 57
e 51 67
e 51 69
e 51 70
e 51 72
e 51 91
e 52 55
e 52 56
e 52 75
e 52 88
e 52 99
e 53 54
e 53 58
e 53 70
e 53 90
e 53 98
e 53 99
e 54 66
e 54 69
e 54 71
e 54 72
e 54 74
e 54 86
e 54 90
e 54 98
e 55 56
e 55 63
e 55 67
e 55 76
e 55 85
e 55 91
e 55 94
e 56 59
e 56 62
e 56 63
e 57 60
e 57 71
e 57 97
e 58 64
e 59 72
e 59 81
e 59 84
e 59 96
e 60 64
e 60 79
e 60 80
e 60 81
e 60 99
e 61 68
e 61 72
e 61 73
e 61 85
e 61 86
e 61 95
e 62 72
e 62 74
e 63 65
e 63 77
e 63 85
e 63 89
e 63 96
e 64 85
e 64 86
e 64 95
e 65 81
e 66 69
e 66 78
e 66 93
e 67 70
e 67 79
e 67 83
e 67 87
e 68 72
e 68 91
e 68 94
e 68 95
e 69 98
e 70 76
e 70 80
e 70 87
e 71 85
e 71 92
e 72 81
e 72 83
e 72 84
e 72 89
e 73 85
e 73 96
e 73 97
e 74 80
e 74 91
e 76 95
e 78 79
e 78 87
e 79 90
e 79 94
e 79 98
e 80 98
e 81 96
e 82 90
e 82 93
e 83 84
e 83 85
e 83 92
e 83 93
e 83 97
e 84 94
e 84 99
e 85 97
e 88 99
e 92 95
e 93 100
e 94 97
e 94 98
e 96 98
